c Generated map
c Size: 8 * 8, weights in range: 1 to 10, walls: True, with ratio 0.05
c dim 4 of 9
c
p sp 64 101
c graph contains 64 nodes and 101 arcs
c
a 1 9 3
a 9 1 3
a 1 2 2
a 2 1 2
a 2 10 9
a 10 2 9
a 2 3 9
a 3 2 9
a 3 11 5
a 11 3 5
a 3 4 10
a 4 3 10
a 4 12 2
a 12 4 2
a 4 5 3
a 5 4 3
a 5 13 4
a 13 5 4
a 5 6 5
a 6 5 5
a 6 14 1
a 14 6 1
a 6 7 10
a 7 6 10
a 7 15 8
a 15 7 8
a 7 8 9
a 8 7 9
a 8 16 8
a 16 8 8
a 9 17 5
a 17 9 5
a 9 10 6
a 10 9 6
a 10 18 2
a 18 10 2
a 10 11 4
a 11 10 4
a 11 19 4
a 19 11 4
a 11 12 1
a 12 11 1
a 12 20 5
a 20 12 5
a 12 13 8
a 13 12 8
a 13 21 7
a 21 13 7
a 13 14 9
a 14 13 9
a 14 22 1
a 22 14 1
a 14 15 3
a 15 14 3
a 15 23 4
a 23 15 4
a 15 16 2
a 16 15 2
a 16 24 6
a 24 16 6
a 17 25 7
a 25 17 7
a 17 18 7
a 18 17 7
a 18 26 5
a 26 18 5
a 18 19 2
a 19 18 2
a 19 27 3
a 27 19 3
a 19 20 7
a 20 19 7
a 20 28 5
a 28 20 5
a 20 21 1
a 21 20 1
a 21 22 5
a 22 21 5
a 22 30 3
a 30 22 3
a 22 23 1
a 23 22 1
a 23 31 2
a 31 23 2
a 23 24 4
a 24 23 4
a 25 33 9
a 33 25 9
a 25 26 3
a 26 25 3
a 26 34 9
a 34 26 9
a 26 27 10
a 27 26 10
a 27 35 7
a 35 27 7
a 27 28 9
a 28 27 9
a 28 36 10
a 36 28 10
a 30 38 8
a 38 30 8
a 30 31 8
a 31 30 8
a 31 39 10
a 39 31 10
a 33 41 1
a 41 33 1
a 33 34 10
a 34 33 10
a 34 35 6
a 35 34 6
a 35 43 10
a 43 35 10
a 35 36 7
a 36 35 7
a 36 44 7
a 44 36 7
a 36 37 2
a 37 36 2
a 37 45 6
a 45 37 6
a 37 38 5
a 38 37 5
a 38 46 1
a 46 38 1
a 38 39 3
a 39 38 3
a 39 47 9
a 47 39 9
a 39 40 9
a 40 39 9
a 40 48 9
a 48 40 9
a 41 49 7
a 49 41 7
a 43 51 6
a 51 43 6
a 43 44 3
a 44 43 3
a 44 52 5
a 52 44 5
a 44 45 4
a 45 44 4
a 45 53 6
a 53 45 6
a 45 46 9
a 46 45 9
a 46 54 10
a 54 46 10
a 46 47 3
a 47 46 3
a 47 55 6
a 55 47 6
a 47 48 10
a 48 47 10
a 48 56 2
a 56 48 2
a 49 57 6
a 57 49 6
a 49 50 6
a 50 49 6
a 50 58 9
a 58 50 9
a 50 51 5
a 51 50 5
a 51 59 6
a 59 51 6
a 51 52 2
a 52 51 2
a 52 60 7
a 60 52 7
a 52 53 7
a 53 52 7
a 53 61 6
a 61 53 6
a 53 54 1
a 54 53 1
a 54 62 6
a 62 54 6
a 54 55 1
a 55 54 1
a 55 63 2
a 63 55 2
a 55 56 9
a 56 55 9
a 56 64 8
a 64 56 8
a 57 58 7
a 58 57 7
a 58 59 5
a 59 58 5
a 59 60 8
a 60 59 8
a 60 61 5
a 61 60 5
a 61 62 9
a 62 61 9
a 62 63 7
a 63 62 7
a 63 64 7
a 64 63 7
